Set parameter Username
Academic license - for non-commercial use only - expires 2024-10-29
Set parameter LazyConstraints to value 1
Set parameter TimeLimit to value 600
Gurobi Optimizer version 10.0.0 build v10.0.0rc2 (linux64)

CPU model: AMD FX(tm)-4300 Quad-Core Processor, instruction set [SSE2|AVX]
Thread count: 2 physical cores, 4 logical processors, using up to 4 threads

Optimize a model with 50125 rows, 12500 columns and 56165 nonzeros
Model fingerprint: 0x40f06211
Variable types: 0 continuous, 12500 integer (12500 binary)
Coefficient statistics:
  Matrix range     [1e+00, 1e+00]
  Objective range  [1e+00, 1e+01]
  Bounds range     [1e+00, 1e+00]
  RHS range        [1e+00, 1e+00]
Presolve removed 50000 rows and 0 columns
Presolve time: 0.02s
Presolved: 125 rows, 12500 columns, 6165 nonzeros
Variable types: 0 continuous, 12500 integer (12500 binary)

Root simplex log...

Iteration    Objective       Primal Inf.    Dual Inf.      Time
       0    0.0000000e+00   1.271817e+02   0.000000e+00      5s
     153    8.5000000e+01   0.000000e+00   0.000000e+00      5s

Root relaxation: objective 8.500000e+01, 153 iterations, 0.00 seconds (0.00 work units)

    Nodes    |    Current Node    |     Objective Bounds      |     Work
 Expl Unexpl |  Obj  Depth IntInf | Incumbent    BestBd   Gap | It/Node Time

     0     0   85.00000    0    -          -   85.00000      -     -    6s
     0     0   85.00000    0    -          -   85.00000      -     -    6s
     0     0   85.00000    0    -          -   85.00000      -     -    7s
     0     0   85.00000    0    6          -   85.00000      -     -    7s
     0     0   85.00000    0    6          -   85.00000      -     -   17s
     0     0  125.00000    0    -          -  125.00000      -     -   20s
     0     0  125.00000    0    -          -  125.00000      -     -   21s
     0     0  125.00000    0    -          -  125.00000      -     -   21s
     0     0  125.00000    0    -          -  125.00000      -     -   22s
     0     0  125.00000    0    -          -  125.00000      -     -   23s
     0     0  125.00000    0    -          -  125.00000      -     -   24s
     0     0  125.00000    0    -          -  125.00000      -     -   25s
     0     0  125.00000    0    -          -  125.00000      -     -   26s
     0     0  125.00000    0    -          -  125.00000      -     -   27s
     0     0  125.00000    0    -          -  125.00000      -     -   28s
     0     0  125.00000    0    -          -  125.00000      -     -   28s
     0     0  125.00000    0    -          -  125.00000      -     -   29s
     0     0  125.00000    0    -          -  125.00000      -     -   30s
     0     0  125.00000    0    -          -  125.00000      -     -   31s
     0     0  125.00000    0    -          -  125.00000      -     -   32s
     0     0  125.00000    0    -          -  125.00000      -     -   33s
     0     0  125.00000    0    -          -  125.00000      -     -   34s
     0     0  125.00000    0    -          -  125.00000      -     -   35s
     0     0  125.00000    0    -          -  125.00000      -     -   35s
     0     0  125.00000    0    -          -  125.00000      -     -   36s
     0     0  125.00000    0    -          -  125.00000      -     -   37s
     0     0  125.00000    0    -          -  125.00000      -     -   38s
     0     0  125.00000    0    -          -  125.00000      -     -   39s
     0     0  125.00000    0    -          -  125.00000      -     -   40s
     0     0  125.00000    0    -          -  125.00000      -     -   41s
     0     0  125.00000    0    -          -  125.00000      -     -   41s
     0     0  125.00000    0    -          -  125.00000      -     -   42s
     0     0  125.00000    0    -          -  125.00000      -     -   43s
     0     0  125.00000    0    -          -  125.00000      -     -   44s
     0     0  125.00000    0    -          -  125.00000      -     -   45s
     0     0  125.00000    0    -          -  125.00000      -     -   46s
     0     0  125.00000    0    -          -  125.00000      -     -   47s
     0     0  125.00000    0    -          -  125.00000      -     -   48s
     0     0  125.00000    0    -          -  125.00000      -     -   48s
     0     0  125.00000    0    -          -  125.00000      -     -   49s
     0     0  125.00000    0    -          -  125.00000      -     -   50s
     0     0  125.00000    0    -          -  125.00000      -     -   51s
     0     0  125.00000    0    -          -  125.00000      -     -   52s
     0     0  125.00000    0    -          -  125.00000      -     -   53s
     0     0  125.00000    0    -          -  125.00000      -     -   54s
H    0     0                     573.0000000  125.00000  78.2%     -   55s
     0     0  125.00000    0    4  573.00000  125.00000  78.2%     -   55s
H    0     0                     486.0000000  125.00000  74.3%     -   56s
     0     0  125.00000    0    4  486.00000  125.00000  74.3%     -   61s
     0     0  125.00000    0    4  486.00000  125.00000  74.3%     -   67s
     0     2  125.00000    0    4  486.00000  125.00000  74.3%     -   82s
     5     2  125.00000    2    -  486.00000  125.00000  74.3%   2.8   86s
    11     0  125.00000    3    -  486.00000  125.00000  74.3%   2.9   94s
    19     2  125.00000    3    -  486.00000  125.00000  74.3%   2.8  103s
    23     0  125.00000    3    -  486.00000  125.00000  74.3%   2.9  105s
    31     0  125.00000    4    -  486.00000  125.00000  74.3%   3.3  112s
    37     0  125.00000    4    -  486.00000  125.00000  74.3%   3.3  116s
    43    12  125.00000    4    8  486.00000  125.00000  74.3%   3.2  122s
    51     0  125.00000    7    -  486.00000  125.00000  74.3%   2.9  126s
    64     8  125.00000    7    -  486.00000  125.00000  74.3%   3.0  134s
    73     0  125.00000    4    4  486.00000  125.00000  74.3%   3.2  140s
    92     7  125.00000    6    -  486.00000  125.00000  74.3%   3.5  157s
   112     0  125.00000    4    -  486.00000  125.00000  74.3%   3.7  174s
   138     6  125.00000    4    -  486.00000  125.00000  74.3%   3.8  197s
   160     6  125.00000   12    -  486.00000  125.00000  74.3%   4.0  215s
   174    19  125.00000    5    4  486.00000  125.00000  74.3%   4.0  227s
   193    32  125.00000    8    -  486.00000  125.00000  74.3%   4.0  239s
   196    14  125.00000   12    -  486.00000  125.00000  74.3%   4.1  241s
   209    27  125.00000    4    -  486.00000  125.00000  74.3%   4.1  255s
   238    45  125.00000   13    -  486.00000  125.00000  74.3%   4.3  270s
H  239    46                     470.0000000  125.00000  73.4%   4.3  272s
   254    53  125.00000   13    -  470.00000  125.00000  73.4%   4.3  282s
   265    61  125.00000   14    4  470.00000  125.00000  73.4%   4.4  291s
   325    88  125.00000   31    -  470.00000  125.00000  73.4%   4.5  311s
   336    24  125.00000   17    -  470.00000  125.00000  73.4%   4.4  322s
   346    33  125.00000   19    -  470.00000  125.00000  73.4%   4.5  329s
   356    40  125.00000   21    -  470.00000  125.00000  73.4%   4.4  333s
   366    47  125.00000   25    -  470.00000  125.00000  73.4%   4.3  337s
   376    54  125.00000   23    -  470.00000  125.00000  73.4%   4.3  340s
   386    63  125.00000    6    5  470.00000  125.00000  73.4%   4.4  347s
   396    69  125.00000   10    6  470.00000  125.00000  73.4%   4.3  350s
   495    85  125.00000   27    -  470.00000  125.00000  73.4%   4.2  392s
   503    90  125.00000    6    -  470.00000  125.00000  73.4%   4.2  395s
H  509    95                     465.0000000  125.00000  73.1%   4.2  401s
   525   103  125.00000   27    -  465.00000  125.00000  73.1%   4.2  406s
   541   115  125.00000   20    -  465.00000  125.00000  73.1%   4.2  411s
   608   179  125.00000   28    -  465.00000  125.00000  73.1%   4.3  433s
   616   184  125.00000   19    4  465.00000  125.00000  73.1%   4.3  435s
   632   184  125.00000   35    4  465.00000  125.00000  73.1%   4.2  440s
   648   192  125.00000   38    4  465.00000  125.00000  73.1%   4.2  445s
   664   205  125.00000   27    -  465.00000  125.00000  73.1%   4.3  450s
   680   214  125.00000   26    -  465.00000  125.00000  73.1%   4.3  455s
   704   225  125.00000   33    -  465.00000  125.00000  73.1%   4.4  461s
   784   221  125.00000   36    4  465.00000  125.00000  73.1%   5.1  486s
   792   225  125.00000   27    -  465.00000  125.00000  73.1%   5.0  492s
   800   230  125.00000   28    -  465.00000  125.00000  73.1%   5.0  495s
   816   243  125.00000    9    -  465.00000  125.00000  73.1%   5.4  501s
   832   252  125.00000   27    -  465.00000  125.00000  73.1%   5.3  507s
   848   262  125.00000   10    -  465.00000  125.00000  73.1%   5.3  511s
   856   267  125.00000   28    -  465.00000  125.00000  73.1%   5.3  515s
   904   197  125.00000   26    4  465.00000  125.00000  73.1%   5.8  529s
   912   203  125.00000   28    6  465.00000  125.00000  73.1%   5.8  535s
   928   211  125.00000   31    -  465.00000  125.00000  73.1%   5.7  540s
   944   224  125.00000   24    -  465.00000  125.00000  73.1%   5.7  545s
   960   236  125.00000   15    -  465.00000  125.00000  73.1%   5.7  550s
   976   250  125.00000   22    -  465.00000  125.00000  73.1%   5.8  555s
  1078   224  125.00000   24    -  465.00000  125.00000  73.1%   6.4  587s
  1094   239  125.00000   13    -  465.00000  125.00000  73.1%   6.4  592s
H 1101   246                     459.0000000  125.00000  72.8%   6.4  594s
H 1102   247                     455.0000000  125.00000  72.5%   6.4  596s
  1110   252  125.00000   17    -  455.00000  125.00000  72.5%   6.3  601s
  1126   267  125.00000   25    -  455.00000  125.00000  72.5%   6.3  605s
  1142   281  125.00000   32    -  455.00000  125.00000  72.5%   6.2  610s
  1205   336  125.00000    7    4  455.00000  125.00000  72.5%   6.2  629s
  1213   343  125.00000    8    -  455.00000  125.00000  72.5%   6.2  631s

Cutting planes:
  User: 1
  Lazy constraints: 300

Explored 1228 nodes (7877 simplex iterations) in 635.56 seconds (5.34 work units)
Thread count was 4 (of 4 available processors)

Solution count 6: 455 459 465 ... 573

Time limit reached
Best objective 4.550000000000e+02, best bound 1.250000000000e+02, gap 72.5275%

User-callback calls 3524, time in user-callback 623.68 sec
